Welcome to the CBC MILP Solver 
Version: Trunk
Build Date: Apr 16 2020 

Starting solution of the Linear programming relaxation problem using Primal Simplex

Using Python-MIP package version 1.8.1
Machines:  4 Jobs:  4
Order: 
Job  0 : machine 0 ( 10 ) machine 3 ( 1 ) machine 2 ( 6 ) machine 1 ( 7 ) 
Job  1 : machine 0 ( 1 ) machine 3 ( 7 ) machine 1 ( 5 ) machine 2 ( 8 ) 
Job  2 : machine 3 ( 9 ) machine 2 ( 3 ) machine 1 ( 7 ) machine 0 ( 1 ) 
Job  3 : machine 1 ( 7 ) machine 3 ( 3 ) machine 0 ( 9 ) machine 2 ( 10 ) 
K:  44
Job  0 , e: machine  0 ( 0 ) machine  1 ( 17 ) machine  2 ( 11 ) machine  3 ( 10 ) 
Job  1 , e: machine  0 ( 0 ) machine  1 ( 8 ) machine  2 ( 13 ) machine  3 ( 1 ) 
Job  2 , e: machine  0 ( 19 ) machine  1 ( 12 ) machine  2 ( 9 ) machine  3 ( 0 ) 
Job  3 , e: machine  0 ( 10 ) machine  1 ( 0 ) machine  2 ( 19 ) machine  3 ( 7 ) 
Job  0 , f: machine  0 ( 14 ) machine  1 ( 0 ) machine  2 ( 7 ) machine  3 ( 13 ) 
Job  1 , f: machine  0 ( 20 ) machine  1 ( 8 ) machine  2 ( 0 ) machine  3 ( 13 ) 
Job  2 , f: machine  0 ( 0 ) machine  1 ( 1 ) machine  2 ( 8 ) machine  3 ( 11 ) 
Job  3 , f: machine  0 ( 10 ) machine  1 ( 22 ) machine  2 ( 0 ) machine  3 ( 19 ) 
EST and LST:
Job: 0 Machine: 0 EST: 0 LST: 20
Job: 0 Machine: 1 EST: 17 LST: 37
Job: 0 Machine: 2 EST: 11 LST: 31
Job: 0 Machine: 3 EST: 10 LST: 30
Job: 1 Machine: 0 EST: 0 LST: 23
Job: 1 Machine: 1 EST: 8 LST: 31
Job: 1 Machine: 2 EST: 13 LST: 36
Job: 1 Machine: 3 EST: 1 LST: 24
Job: 2 Machine: 0 EST: 19 LST: 43
Job: 2 Machine: 1 EST: 12 LST: 36
Job: 2 Machine: 2 EST: 9 LST: 33
Job: 2 Machine: 3 EST: 0 LST: 24
Job: 3 Machine: 0 EST: 10 LST: 25
Job: 3 Machine: 1 EST: 0 LST: 15
Job: 3 Machine: 2 EST: 19 LST: 34
Job: 3 Machine: 3 EST: 7 LST: 22
Order:
Job: 0 Machine: 0 = 0 
Job: 0 Machine: 1 = 3 
Job: 0 Machine: 2 = 2 
Job: 0 Machine: 3 = 1 
Job: 1 Machine: 0 = 0 
Job: 1 Machine: 1 = 2 
Job: 1 Machine: 2 = 3 
Job: 1 Machine: 3 = 1 
Job: 2 Machine: 0 = 3 
Job: 2 Machine: 1 = 2 
Job: 2 Machine: 2 = 1 
Job: 2 Machine: 3 = 0 
Job: 3 Machine: 0 = 2 
Job: 3 Machine: 1 = 0 
Job: 3 Machine: 2 = 3 
Job: 3 Machine: 3 = 1 
Distances:
Job 0, Machine 0 -> Machine 3: distance 10
Job 0, Machine 0 -> Machine 2: distance 11
Job 0, Machine 0 -> Machine 1: distance 17
Job 0, Machine 3 -> Machine 2: distance 1
Job 0, Machine 3 -> Machine 1: distance 7
Job 0, Machine 2 -> Machine 1: distance 6
Job 1, Machine 0 -> Machine 3: distance 1
Job 1, Machine 0 -> Machine 1: distance 8
Job 1, Machine 0 -> Machine 2: distance 13
Job 1, Machine 3 -> Machine 1: distance 7
Job 1, Machine 3 -> Machine 2: distance 12
Job 1, Machine 1 -> Machine 2: distance 5
Job 2, Machine 3 -> Machine 2: distance 9
Job 2, Machine 3 -> Machine 1: distance 12
Job 2, Machine 3 -> Machine 0: distance 19
Job 2, Machine 2 -> Machine 1: distance 3
Job 2, Machine 2 -> Machine 0: distance 10
Job 2, Machine 1 -> Machine 0: distance 7
Job 3, Machine 1 -> Machine 3: distance 7
Job 3, Machine 1 -> Machine 0: distance 10
Job 3, Machine 1 -> Machine 2: distance 19
Job 3, Machine 3 -> Machine 0: distance 3
Job 3, Machine 3 -> Machine 2: distance 12
Job 3, Machine 0 -> Machine 2: distance 9
McCormic linearization
[(1, 2), (3, 2), (0, 0), (3, 3), (3, 1), (2, 0), (1, 1), (2, 3), (2, 2), (1, 0), (0, 2)]
obj:  0.6000000000000001
solutions:  1
+ x(0,0) + 0.10000000000000002x(1,0) 
C:  28.999999999999996
x(0,0) = 0.20	 x(0,1) = 19.00	 x(0,2) = 13.00	 x(0,3) = 10.20	 
x(1,0) = 8.00	 x(1,1) = 16.00	 x(1,2) = 21.00	 x(1,3) = 9.00	 
x(2,0) = 20.20	 x(2,1) = 13.20	 x(2,2) = 10.20	 x(2,3) = 1.20	 
x(3,0) = 10.00	 x(3,1) = 0.00	 x(3,2) = 19.00	 x(3,3) = 7.00	 
y(0,1,0) = 0.37	 y(1,0,0) = 0.63	 
y(0,2,0) = 0.48	 y(2,0,0) = 0.52	 
y(0,3,0) = 0.99	 y(3,0,0) = 0.01	 
y(1,2,0) = 0.30	 y(2,1,0) = 0.70	 
y(1,3,0) = 0.96	 y(3,1,0) = 0.04	 
y(2,3,0) = 0.00	 y(3,2,0) = 1.00	 
y(0,1,1) = 0.48	 y(1,0,1) = 0.52	 
y(0,2,1) = 0.05	 y(2,0,1) = 0.95	 
y(0,3,1) = 0.00	 y(3,0,1) = 1.00	 
y(1,2,1) = 0.12	 y(2,1,1) = 0.88	 
y(1,3,1) = 0.38	 y(3,1,1) = 0.62	 
y(2,3,1) = 0.00	 y(3,2,1) = 1.00	 
y(0,1,2) = 0.48	 y(1,0,2) = 0.52	 
y(0,2,2) = 0.44	 y(2,0,2) = 0.56	 
y(0,3,2) = 1.00	 y(3,0,2) = 0.00	 
y(1,2,2) = 0.00	 y(2,1,2) = 1.00	 
y(1,3,2) = 0.26	 y(3,1,2) = 0.74	 
y(2,3,2) = 0.74	 y(3,2,2) = 0.26	 
y(0,1,3) = 0.28	 y(1,0,3) = 0.72	 
y(0,2,3) = 0.00	 y(2,0,3) = 1.00	 
y(0,3,3) = 0.01	 y(3,0,3) = 0.99	 
y(1,2,3) = 0.04	 y(2,1,3) = 0.96	 
y(1,3,3) = 0.04	 y(3,1,3) = 0.96	 
y(2,3,3) = 0.35	 y(3,2,3) = 0.65	 
obj:  0.8044444444444443
solutions:  1
+ 0.1111111111111111x(3,3) + 0.022222222222222216x(2,3) 
[(1, 2), (0, 1), (0, 0), (3, 3), (0, 2), (3, 1), (2, 0), (2, 3), (2, 2), (1, 0), (1, 1)]
cliques:  1 mip: 72
C:  29.699716713880658
x(0,0) = 5.70	 x(0,1) = 22.70	 x(0,2) = 16.70	 x(0,3) = 15.70	 
x(1,0) = -0.00	 x(1,1) = 8.00	 x(1,2) = 13.00	 x(1,3) = 1.00	 
x(2,0) = 28.56	 x(2,1) = 21.56	 x(2,2) = 18.56	 x(2,3) = 9.56	 
x(3,0) = 10.09	 x(3,1) = 0.00	 x(3,2) = 19.09	 x(3,3) = 7.09	 
y(0,1,0) = 0.00	 y(1,0,0) = 1.00	 
y(0,2,0) = 0.83	 y(2,0,0) = 0.17	 
y(0,3,0) = 0.39	 y(3,0,0) = 0.61	 
y(1,2,0) = 0.67	 y(2,1,0) = 0.33	 
y(1,3,0) = 0.62	 y(3,1,0) = 0.38	 
y(2,3,0) = 0.00	 y(3,2,0) = 1.00	 
y(0,1,1) = 0.13	 y(1,0,1) = 0.87	 
y(0,2,1) = 0.23	 y(2,0,1) = 0.77	 
y(0,3,1) = 0.00	 y(3,0,1) = 1.00	 
y(1,2,1) = 0.59	 y(2,1,1) = 0.41	 
y(1,3,1) = 0.04	 y(3,1,1) = 0.96	 
y(2,3,1) = 0.00	 y(3,2,1) = 1.00	 
y(0,1,2) = 0.13	 y(1,0,2) = 0.87	 
y(0,2,2) = 0.29	 y(2,0,2) = 0.71	 
y(0,3,2) = 0.71	 y(3,0,2) = 0.29	 
y(1,2,2) = 0.37	 y(2,1,2) = 0.63	 
y(1,3,2) = 0.92	 y(3,1,2) = 0.08	 
y(2,3,2) = 0.85	 y(3,2,2) = 0.15	 
y(0,1,3) = 0.00	 y(1,0,3) = 1.00	 
y(0,2,3) = 0.28	 y(2,0,3) = 0.72	 
y(0,3,3) = 0.26	 y(3,0,3) = 0.74	 
y(1,2,3) = 0.55	 y(2,1,3) = 0.45	 
y(1,3,3) = 0.39	 y(3,1,3) = 0.61	 
y(2,3,3) = 0.02	 y(3,2,3) = 0.98	 
obj:  0.8810569518782332
solutions:  1
+ 0.06306306306306307x(1,3) + 0.027027027027027018x(3,3) + 0.06552006552006553x(2,3) 
[(1, 2), (0, 0), (1, 3), (3, 3), (3, 0), (0, 2), (2, 1), (2, 0), (2, 3), (2, 2), (1, 0), (1, 1)]
cliques:  1 mip: 121
C:  31.000000000000004
x(0,0) = 2.22	 x(0,1) = 22.18	 x(0,2) = 13.68	 x(0,3) = 12.68	 
x(1,0) = -0.00	 x(1,1) = 8.00	 x(1,2) = 13.00	 x(1,3) = 1.00	 
x(2,0) = 30.00	 x(2,1) = 23.00	 x(2,2) = 20.00	 x(2,3) = 11.00	 
x(3,0) = 11.00	 x(3,1) = 1.00	 x(3,2) = 21.00	 x(3,3) = 8.00	 
y(0,1,0) = 0.00	 y(1,0,0) = 1.00	 
y(0,2,0) = 1.00	 y(2,0,0) = 0.00	 
y(0,3,0) = 0.94	 y(3,0,0) = 0.06	 
y(1,2,0) = 0.83	 y(2,1,0) = 0.17	 
y(1,3,0) = 0.59	 y(3,1,0) = 0.41	 
y(2,3,0) = 0.00	 y(3,2,0) = 1.00	 
y(0,1,1) = 0.00	 y(1,0,1) = 1.00	 
y(0,2,1) = 0.30	 y(2,0,1) = 0.70	 
y(0,3,1) = 0.00	 y(3,0,1) = 1.00	 
y(1,2,1) = 0.67	 y(2,1,1) = 0.33	 
y(1,3,1) = 0.00	 y(3,1,1) = 1.00	 
y(2,3,1) = 0.00	 y(3,2,1) = 1.00	 
y(0,1,2) = 0.72	 y(1,0,2) = 0.28	 
y(0,2,2) = 0.37	 y(2,0,2) = 0.63	 
y(0,3,2) = 1.00	 y(3,0,2) = 0.00	 
y(1,2,2) = 0.43	 y(2,1,2) = 0.57	 
y(1,3,2) = 1.00	 y(3,1,2) = -0.00	 
y(2,3,2) = 0.88	 y(3,2,2) = 0.12	 
y(0,1,3) = 0.00	 y(1,0,3) = 1.00	 
y(0,2,3) = 0.32	 y(2,0,3) = 0.68	 
y(0,3,3) = 0.08	 y(3,0,3) = 0.92	 
y(1,2,3) = 0.62	 y(2,1,3) = 0.38	 
y(1,3,3) = 0.42	 y(3,1,3) = 0.58	 
y(2,3,3) = 0.00	 y(3,2,3) = 1.00	 
obj:  0.8630147285868386
solutions:  1
+ 0.040194884287454324x(1,2) + 0.005052555600667657x(1,3) + 0.0069472639509180496x(3,3) + 0.003473631975459016x(2,2) + 0.015383227319889918x(0,2) 
[(1, 2), (0, 1), (1, 3), (3, 3), (3, 0), (2, 1), (1, 1), (2, 3), (2, 2), (1, 0), (0, 2), (0, 3)]
cliques:  1 mip: 62
C:  31.495995921212714
x(0,0) = 0.63	 x(0,1) = 19.91	 x(0,2) = 11.63	 x(0,3) = 10.63	 
x(1,0) = 3.74	 x(1,1) = 11.74	 x(1,2) = 16.74	 x(1,3) = 4.74	 
x(2,0) = 30.50	 x(2,1) = 23.50	 x(2,2) = 20.50	 x(2,3) = 10.67	 
x(3,0) = 10.67	 x(3,1) = 0.67	 x(3,2) = 19.67	 x(3,3) = 7.67	 
y(0,1,0) = 0.17	 y(1,0,0) = 0.83	 
y(0,2,0) = 1.00	 y(2,0,0) = 0.00	 
y(0,3,0) = 0.87	 y(3,0,0) = 0.13	 
y(1,2,0) = 0.85	 y(2,1,0) = 0.15	 
y(1,3,0) = 0.72	 y(3,1,0) = 0.28	 
y(2,3,0) = 0.00	 y(3,2,0) = 1.00	 
y(0,1,1) = 0.00	 y(1,0,1) = 1.00	 
y(0,2,1) = 0.41	 y(2,0,1) = 0.59	 
y(0,3,1) = 0.00	 y(3,0,1) = 1.00	 
y(1,2,1) = 0.75	 y(2,1,1) = 0.25	 
y(1,3,1) = 0.13	 y(3,1,1) = 0.87	 
y(2,3,1) = 0.00	 y(3,2,1) = 1.00	 
y(0,1,2) = 0.96	 y(1,0,2) = 0.04	 
y(0,2,2) = 0.47	 y(2,0,2) = 0.53	 
y(0,3,2) = 1.00	 y(3,0,2) = 0.00	 
y(1,2,2) = 0.29	 y(2,1,2) = 0.71	 
y(1,3,2) = 0.77	 y(3,1,2) = 0.23	 
y(2,3,2) = 0.78	 y(3,2,2) = 0.22	 
y(0,1,3) = 0.05	 y(1,0,3) = 0.95	 
y(0,2,3) = 0.44	 y(2,0,3) = 0.56	 
y(0,3,3) = 0.00	 y(3,0,3) = 1.00	 
y(1,2,3) = 0.97	 y(2,1,3) = 0.03	 
y(1,3,3) = 0.44	 y(3,1,3) = 0.56	 
y(2,3,3) = 0.00	 y(3,2,3) = 1.00	 
obj:  0.8200616167944901
solutions:  1
+ 0.01432313727534568x(1,2) + 0.02250778714697182x(3,2) + 0.001563945835342579x(1,3) + 0.002150425523596047x(3,3) + 0.00977466147089105x(0,2) 
[(0, 1), (1, 2), (3, 2), (1, 3), (3, 3), (3, 0), (1, 0), (2, 1), (1, 1), (2, 3), (2, 2), (0, 3), (0, 2)]
cliques:  1 mip: 111
C:  33.12161754626452
x(0,0) = 0.04	 x(0,1) = 26.12	 x(0,2) = 20.12	 x(0,3) = 12.62	 
x(1,0) = 9.63	 x(1,1) = 18.88	 x(1,2) = 23.88	 x(1,3) = 11.88	 
x(2,0) = 32.12	 x(2,1) = 25.12	 x(2,2) = 19.00	 x(2,3) = 10.00	 
x(3,0) = 10.00	 x(3,1) = -0.00	 x(3,2) = 19.00	 x(3,3) = 7.00	 
y(0,1,0) = 0.69	 y(1,0,0) = 0.31	 
y(0,2,0) = 1.00	 y(2,0,0) = 0.00	 
y(0,3,0) = 0.69	 y(3,0,0) = 0.31	 
y(1,2,0) = 0.79	 y(2,1,0) = 0.21	 
y(1,3,0) = 0.28	 y(3,1,0) = 0.72	 
y(2,3,0) = 0.00	 y(3,2,0) = 1.00	 
y(0,1,1) = 0.13	 y(1,0,1) = 0.87	 
y(0,2,1) = 0.23	 y(2,0,1) = 0.77	 
y(0,3,1) = 0.00	 y(3,0,1) = 1.00	 
y(1,2,1) = 0.48	 y(2,1,1) = 0.52	 
y(1,3,1) = 0.34	 y(3,1,1) = 0.66	 
y(2,3,1) = 0.00	 y(3,2,1) = 1.00	 
y(0,1,2) = 0.67	 y(1,0,2) = 0.33	 
y(0,2,2) = 0.11	 y(2,0,2) = 0.89	 
y(0,3,2) = 0.60	 y(3,0,2) = 0.40	 
y(1,2,2) = 0.00	 y(2,1,2) = 1.00	 
y(1,3,2) = 0.48	 y(3,1,2) = 0.52	 
y(2,3,2) = 0.82	 y(3,2,2) = 0.18	 
y(0,1,3) = 0.30	 y(1,0,3) = 0.70	 
y(0,2,3) = 0.28	 y(2,0,3) = 0.72	 
y(0,3,3) = 0.13	 y(3,0,3) = 0.87	 
y(1,2,3) = 0.71	 y(2,1,3) = 0.29	 
y(1,3,3) = 0.00	 y(3,1,3) = 1.00	 
y(2,3,3) = 0.00	 y(3,2,3) = 1.00	 
obj:  0.9174311926605259
solutions:  1
+ 0.09174311926605487x(0,0) + 0.08256880733944956x(3,0) + 0.009174311926605493x(1,0) 
[(1, 2), (3, 2), (0, 0), (1, 3), (3, 0), (3, 1), (2, 1), (1, 1), (1, 0), (0, 2), (0, 3)]
cliques:  1 mip: 127
C:  34.0
x(0,0) = 1.06	 x(0,1) = 27.00	 x(0,2) = 21.00	 x(0,3) = 11.06	 
x(1,0) = 3.72	 x(1,1) = 11.72	 x(1,2) = 16.72	 x(1,3) = 4.72	 
x(2,0) = 33.00	 x(2,1) = 23.66	 x(2,2) = 20.66	 x(2,3) = 11.66	 
x(3,0) = 10.52	 x(3,1) = 0.12	 x(3,2) = 23.66	 x(3,3) = 7.12	 
y(0,1,0) = 0.20	 y(1,0,0) = 0.80	 
y(0,2,0) = 1.00	 y(2,0,0) = 0.00	 
y(0,3,0) = 0.64	 y(3,0,0) = 0.36	 
y(1,2,0) = 0.70	 y(2,1,0) = 0.30	 
y(1,3,0) = 0.46	 y(3,1,0) = 0.54	 
y(2,3,0) = 0.00	 y(3,2,0) = 1.00	 
y(0,1,1) = 0.22	 y(1,0,1) = 0.78	 
y(0,2,1) = 0.61	 y(2,0,1) = 0.39	 
y(0,3,1) = 0.00	 y(3,0,1) = 1.00	 
y(1,2,1) = 0.54	 y(2,1,1) = 0.46	 
y(1,3,1) = 0.52	 y(3,1,1) = 0.48	 
y(2,3,1) = 0.00	 y(3,2,1) = 1.00	 
y(0,1,2) = 0.32	 y(1,0,2) = 0.68	 
y(0,2,2) = 0.12	 y(2,0,2) = 0.88	 
y(0,3,2) = 0.55	 y(3,0,2) = 0.45	 
y(1,2,2) = 0.30	 y(2,1,2) = 0.70	 
y(1,3,2) = 0.96	 y(3,1,2) = 0.04	 
y(2,3,2) = 1.00	 y(3,2,2) = 0.00	 
y(0,1,3) = 0.03	 y(1,0,3) = 0.97	 
y(0,2,3) = 0.42	 y(2,0,3) = 0.58	 
y(0,3,3) = 0.05	 y(3,0,3) = 0.95	 
y(1,2,3) = 1.00	 y(2,1,3) = 0.00	 
y(1,3,3) = 0.22	 y(3,1,3) = 0.78	 
y(2,3,3) = 0.00	 y(3,2,3) = 1.00	 
obj:  0.975625958980896
solutions:  1
+ 0.005025125628140698x(0,0) + 0.0904522613065327x(3,0) + 0.005025125628140688x(1,0) 
[(0, 1), (1, 2), (3, 2), (0, 0), (3, 0), (0, 2), (3, 1), (2, 1), (2, 3), (1, 0), (1, 1), (0, 3)]
cliques:  1 mip: 98
C:  34.12042625859847
x(0,0) = 0.71	 x(0,1) = 27.12	 x(0,2) = 20.17	 x(0,3) = 10.90	 
x(1,0) = 2.90	 x(1,1) = 10.90	 x(1,2) = 15.90	 x(1,3) = 3.90	 
x(2,0) = 33.12	 x(2,1) = 24.27	 x(2,2) = 21.27	 x(2,3) = 12.27	 
x(3,0) = 15.12	 x(3,1) = 5.12	 x(3,2) = 24.12	 x(3,3) = 12.12	 
y(0,1,0) = 0.20	 y(1,0,0) = 0.80	 
y(0,2,0) = 1.00	 y(2,0,0) = 0.00	 
y(0,3,0) = 0.98	 y(3,0,0) = 0.02	 
y(1,2,0) = 0.83	 y(2,1,0) = 0.17	 
y(1,3,0) = 0.95	 y(3,1,0) = 0.05	 
y(2,3,0) = 0.00	 y(3,2,0) = 1.00	 
y(0,1,1) = 0.08	 y(1,0,1) = 0.92	 
y(0,2,1) = 0.69	 y(2,0,1) = 0.31	 
y(0,3,1) = 0.00	 y(3,0,1) = 1.00	 
y(1,2,1) = 0.58	 y(2,1,1) = 0.42	 
y(1,3,1) = 0.15	 y(3,1,1) = 0.85	 
y(2,3,1) = 0.00	 y(3,2,1) = 1.00	 
y(0,1,2) = 0.57	 y(1,0,2) = 0.43	 
y(0,2,2) = 0.16	 y(2,0,2) = 0.84	 
y(0,3,2) = 0.42	 y(3,0,2) = 0.58	 
y(1,2,2) = 0.36	 y(2,1,2) = 0.64	 
y(1,3,2) = 1.00	 y(3,1,2) = 0.00	 
y(2,3,2) = 0.43	 y(3,2,2) = 0.57	 
y(0,1,3) = 0.00	 y(1,0,3) = 1.00	 
y(0,2,3) = 0.50	 y(2,0,3) = 0.50	 
y(0,3,3) = 0.28	 y(3,0,3) = 0.72	 
y(1,2,3) = 0.91	 y(2,1,3) = 0.09	 
y(1,3,3) = 1.00	 y(3,1,3) = -0.00	 
y(2,3,3) = 0.11	 y(3,2,3) = 0.89	 
obj:  1.0060141188272675
erro
[(1, 2), (0, 1), (3, 2), (3, 3), (2, 1), (1, 1), (2, 3), (2, 2), (0, 3), (0, 2)]
cliques:  0 mip: 116
C:  35.00000000000004
x(0,0) = 2.12	 x(0,1) = 23.21	 x(0,2) = 17.21	 x(0,3) = 12.37	 
x(1,0) = 3.25	 x(1,1) = 12.37	 x(1,2) = 17.37	 x(1,3) = 5.37	 
x(2,0) = 34.00	 x(2,1) = 17.37	 x(2,2) = 14.37	 x(2,3) = 5.37	 
x(3,0) = 14.88	 x(3,1) = 4.88	 x(3,2) = 24.40	 x(3,3) = 11.88	 
y(0,1,0) = 0.41	 y(1,0,0) = 0.59	 
y(0,2,0) = 1.00	 y(2,0,0) = 0.00	 
y(0,3,0) = 0.82	 y(3,0,0) = 0.18	 
y(1,2,0) = 0.77	 y(2,1,0) = 0.23	 
y(1,3,0) = 0.61	 y(3,1,0) = 0.39	 
y(2,3,0) = 0.00	 y(3,2,0) = 1.00	 
y(0,1,1) = 0.00	 y(1,0,1) = 1.00	 
y(0,2,1) = 0.60	 y(2,0,1) = 0.40	 
y(0,3,1) = 0.00	 y(3,0,1) = 1.00	 
y(1,2,1) = 0.56	 y(2,1,1) = 0.44	 
y(1,3,1) = 0.54	 y(3,1,1) = 0.46	 
y(2,3,1) = 0.00	 y(3,2,1) = 1.00	 
y(0,1,2) = 0.58	 y(1,0,2) = 0.42	 
y(0,2,2) = 0.15	 y(2,0,2) = 0.85	 
y(0,3,2) = 0.86	 y(3,0,2) = 0.14	 
y(1,2,2) = 0.00	 y(2,1,2) = 1.00	 
y(1,3,2) = 0.96	 y(3,1,2) = 0.04	 
y(2,3,2) = 0.90	 y(3,2,2) = 0.10	 
y(0,1,3) = 0.00	 y(1,0,3) = 1.00	 
y(0,2,3) = 0.12	 y(2,0,3) = 0.88	 
y(0,3,3) = 0.17	 y(3,0,3) = 0.83	 
y(1,2,3) = 0.77	 y(2,1,3) = 0.23	 
y(1,3,3) = 0.98	 y(3,1,3) = 0.02	 
y(2,3,3) = 0.38	 y(3,2,3) = 0.62	 
obj:  1.1331820157996453
erro
[(1, 2), (0, 1), (0, 0), (3, 3), (3, 0), (3, 1), (2, 1), (2, 0), (1, 1), (2, 3), (1, 0), (0, 2)]
cliques:  0 mip: 90
C:  35.0
x(0,0) = 2.01	 x(0,1) = 23.98	 x(0,2) = 16.10	 x(0,3) = 12.01	 
x(1,0) = 4.01	 x(1,1) = 12.01	 x(1,2) = 19.06	 x(1,3) = 5.01	 
x(2,0) = 34.00	 x(2,1) = 24.01	 x(2,2) = 16.59	 x(2,3) = 7.59	 
x(3,0) = 12.74	 x(3,1) = 2.74	 x(3,2) = 24.03	 x(3,3) = 9.74	 
y(0,1,0) = 0.62	 y(1,0,0) = 0.38	 
y(0,2,0) = 1.00	 y(2,0,0) = 0.00	 
y(0,3,0) = 0.69	 y(3,0,0) = 0.31	 
y(1,2,0) = 0.86	 y(2,1,0) = 0.14	 
y(1,3,0) = 0.74	 y(3,1,0) = 0.26	 
y(2,3,0) = 0.00	 y(3,2,0) = 1.00	 
y(0,1,1) = 0.00	 y(1,0,1) = 1.00	 
y(0,2,1) = 0.50	 y(2,0,1) = 0.50	 
y(0,3,1) = 0.00	 y(3,0,1) = 1.00	 
y(1,2,1) = 0.70	 y(2,1,1) = 0.30	 
y(1,3,1) = 0.60	 y(3,1,1) = 0.40	 
y(2,3,1) = 0.00	 y(3,2,1) = 1.00	 
y(0,1,2) = 0.87	 y(1,0,2) = 0.13	 
y(0,2,2) = 0.17	 y(2,0,2) = 0.83	 
y(0,3,2) = 0.96	 y(3,0,2) = 0.04	 
y(1,2,2) = 0.02	 y(2,1,2) = 0.98	 
y(1,3,2) = 0.88	 y(3,1,2) = 0.12	 
y(2,3,2) = 0.90	 y(3,2,2) = 0.10	 
y(0,1,3) = 0.00	 y(1,0,3) = 1.00	 
y(0,2,3) = 0.20	 y(2,0,3) = 0.80	 
y(0,3,3) = 0.05	 y(3,0,3) = 0.95	 
y(1,2,3) = 0.36	 y(2,1,3) = 0.64	 
y(1,3,3) = 0.91	 y(3,1,3) = 0.09	 
y(2,3,3) = 0.21	 y(3,2,3) = 0.79	 
obj:  1.07651194120344
erro
[(0, 1), (0, 0), (1, 3), (3, 3), (3, 0), (3, 1), (2, 1), (2, 3), (1, 0), (1, 1)]
cliques:  0 mip: 99
C:  35.00000000000001
x(0,0) = 0.92	 x(0,1) = 21.64	 x(0,2) = 15.64	 x(0,3) = 12.91	 
x(1,0) = 4.14	 x(1,1) = 12.91	 x(1,2) = 19.76	 x(1,3) = 5.91	 
x(2,0) = 34.00	 x(2,1) = 25.77	 x(2,2) = 19.06	 x(2,3) = 5.17	 
x(3,0) = 13.69	 x(3,1) = 3.69	 x(3,2) = 23.63	 x(3,3) = 10.69	 
y(0,1,0) = 0.18	 y(1,0,0) = 0.82	 
y(0,2,0) = 0.98	 y(2,0,0) = 0.02	 
y(0,3,0) = 0.76	 y(3,0,0) = 0.24	 
y(1,2,0) = 0.93	 y(2,1,0) = 0.07	 
y(1,3,0) = 1.00	 y(3,1,0) = 0.00	 
y(2,3,0) = 0.00	 y(3,2,0) = 1.00	 
y(0,1,1) = 0.00	 y(1,0,1) = 1.00	 
y(0,2,1) = 0.80	 y(2,0,1) = 0.20	 
y(0,3,1) = 0.00	 y(3,0,1) = 1.00	 
y(1,2,1) = 0.73	 y(2,1,1) = 0.27	 
y(1,3,1) = 0.50	 y(3,1,1) = 0.50	 
y(2,3,1) = 0.00	 y(3,2,1) = 1.00	 
y(0,1,2) = 0.75	 y(1,0,2) = 0.25	 
y(0,2,2) = 0.32	 y(2,0,2) = 0.68	 
y(0,3,2) = 0.98	 y(3,0,2) = 0.02	 
y(1,2,2) = 0.10	 y(2,1,2) = 0.90	 
y(1,3,2) = 0.83	 y(3,1,2) = 0.17	 
y(2,3,2) = 0.42	 y(3,2,2) = 0.58	 
y(0,1,3) = 0.00	 y(1,0,3) = 1.00	 
y(0,2,3) = 0.08	 y(2,0,3) = 0.92	 
y(0,3,3) = 0.05	 y(3,0,3) = 0.95	 
y(1,2,3) = 0.59	 y(2,1,3) = 0.41	 
y(1,3,3) = 0.57	 y(3,1,3) = 0.43	 
y(2,3,3) = 0.43	 y(3,2,3) = 0.57	 
obj:  0.9978950888231497
solutions:  1
+ 0.011133531889396015x(1,2) + 0.01749555011190802x(3,2) + 0.016037220450099737x(1,3) + 0.006873094478614144x(3,3) + 0.007533968947711599x(0,2) + 0.015178083640272967x(2,3) 
[(1, 2), (3, 2), (1, 3), (3, 3), (0, 2), (3, 1), (2, 1), (2, 3), (2, 2), (1, 1)]
cliques:  1 mip: 107
C:  35.0
x(0,0) = 2.71	 x(0,1) = 23.53	 x(0,2) = 16.13	 x(0,3) = 12.98	 
x(1,0) = 2.94	 x(1,1) = 12.60	 x(1,2) = 19.29	 x(1,3) = 3.94	 
x(2,0) = 34.00	 x(2,1) = 24.35	 x(2,2) = 19.05	 x(2,3) = 7.84	 
x(3,0) = 14.92	 x(3,1) = 2.98	 x(3,2) = 23.92	 x(3,3) = 9.98	 
y(0,1,0) = 0.10	 y(1,0,0) = 0.90	 
y(0,2,0) = 1.00	 y(2,0,0) = 0.00	 
y(0,3,0) = 0.85	 y(3,0,0) = 0.15	 
y(1,2,0) = 1.00	 y(2,1,0) = 0.00	 
y(1,3,0) = 0.83	 y(3,1,0) = 0.17	 
y(2,3,0) = 0.00	 y(3,2,0) = 1.00	 
y(0,1,1) = 0.00	 y(1,0,1) = 1.00	 
y(0,2,1) = 0.56	 y(2,0,1) = 0.44	 
y(0,3,1) = 0.00	 y(3,0,1) = 1.00	 
y(1,2,1) = 0.89	 y(2,1,1) = 0.11	 
y(1,3,1) = 0.55	 y(3,1,1) = 0.45	 
y(2,3,1) = 0.00	 y(3,2,1) = 1.00	 
y(0,1,2) = 0.58	 y(1,0,2) = 0.42	 
y(0,2,2) = 0.24	 y(2,0,2) = 0.76	 
y(0,3,2) = 0.95	 y(3,0,2) = 0.05	 
y(1,2,2) = 0.27	 y(2,1,2) = 0.73	 
y(1,3,2) = 0.87	 y(3,1,2) = 0.13	 
y(2,3,2) = 0.64	 y(3,2,2) = 0.36	 
y(0,1,3) = 0.00	 y(1,0,3) = 1.00	 
y(0,2,3) = 0.17	 y(2,0,3) = 0.83	 
y(0,3,3) = 0.00	 y(3,0,3) = 1.00	 
y(1,2,3) = 0.85	 y(2,1,3) = 0.15	 
y(1,3,3) = 0.73	 y(3,1,3) = 0.27	 
y(2,3,3) = 0.21	 y(3,2,3) = 0.79	 
obj:  0.9999840545074329
solutions:  1
+ 0.013932172318973413x(1,2) + 0.022639780018331807x(3,2) + 0.0021998166819431828x(1,3) + 0.003024747937671878x(3,3) + 0.009349220898258473x(0,2) 
[(0, 1), (1, 2), (3, 2), (1, 3), (3, 3), (3, 1), (2, 1), (1, 1), (2, 3), (2, 2), (0, 2)]
cliques:  1 mip: 0
C:  35.0
x(0,0) = 2.71	 x(0,1) = 23.54	 x(0,2) = 16.13	 x(0,3) = 12.98	 
x(1,0) = 2.94	 x(1,1) = 12.60	 x(1,2) = 19.29	 x(1,3) = 3.94	 
x(2,0) = 34.00	 x(2,1) = 24.35	 x(2,2) = 19.05	 x(2,3) = 7.84	 
x(3,0) = 14.92	 x(3,1) = 2.98	 x(3,2) = 23.92	 x(3,3) = 9.98	 
y(0,1,0) = 0.10	 y(1,0,0) = 0.90	 
y(0,2,0) = 1.00	 y(2,0,0) = 0.00	 
y(0,3,0) = 0.85	 y(3,0,0) = 0.15	 
y(1,2,0) = 1.00	 y(2,1,0) = 0.00	 
y(1,3,0) = 0.83	 y(3,1,0) = 0.17	 
y(2,3,0) = 0.00	 y(3,2,0) = 1.00	 
y(0,1,1) = 0.00	 y(1,0,1) = 1.00	 
y(0,2,1) = 0.56	 y(2,0,1) = 0.44	 
y(0,3,1) = 0.00	 y(3,0,1) = 1.00	 
y(1,2,1) = 0.89	 y(2,1,1) = 0.11	 
y(1,3,1) = 0.55	 y(3,1,1) = 0.45	 
y(2,3,1) = 0.00	 y(3,2,1) = 1.00	 
y(0,1,2) = 0.58	 y(1,0,2) = 0.42	 
y(0,2,2) = 0.24	 y(2,0,2) = 0.76	 
y(0,3,2) = 0.95	 y(3,0,2) = 0.05	 
y(1,2,2) = 0.27	 y(2,1,2) = 0.73	 
y(1,3,2) = 0.87	 y(3,1,2) = 0.13	 
y(2,3,2) = 0.64	 y(3,2,2) = 0.36	 
y(0,1,3) = 0.00	 y(1,0,3) = 1.00	 
y(0,2,3) = 0.17	 y(2,0,3) = 0.83	 
y(0,3,3) = 0.00	 y(3,0,3) = 1.00	 
y(1,2,3) = 0.85	 y(2,1,3) = 0.15	 
y(1,3,3) = 0.73	 y(3,1,3) = 0.27	 
y(2,3,3) = 0.21	 y(3,2,3) = 0.79	 
obj:  1.0000000000000098
erro
[(0, 1), (1, 2), (3, 2), (1, 3), (3, 3), (3, 1), (2, 1), (1, 1), (2, 3), (2, 2), (0, 2)]
cliques:  0 mip: 0
iterações: 12 cortes cliques encontrados: 9 mip: 1031 objective:  35.0
Coin0506I Presolve 157 (-171) rows, 90 (-71) columns and 490 (-260) elements
Clp1000I sum of infeasibilities 1.79124e-08 - average 1.14092e-10, 0 fixed columns
Coin0506I Presolve 157 (0) rows, 90 (0) columns and 490 (0) elements
Clp0029I End of values pass after 90 iterations
Clp0000I Optimal - objective value 29
Clp0000I Optimal - objective value 29
Coin0511I After Postsolve, objective 29, infeasibilities - dual 0 (0), primal 0 (0)
Clp0000I Optimal - objective value 29
Clp0000I Optimal - objective value 29
Clp0000I Optimal - objective value 29
Coin0511I After Postsolve, objective 29, infeasibilities - dual 0 (0), primal 0 (0)
Clp0032I Optimal objective 29 - 0 iterations time 0.012, Presolve 0.00, Idiot 0.01
Coin3009W Conflict graph built in 0.000 seconds, density: 0.070%
